0 0 0 0
0 1 2 0
0 2 0 0
0 3 1 0
0 4 2 2
0 5 0 2
0 6 0 4
0 7 1 12
0 8 2 2
0 9 0 6
0 10 2 8
0 11 1 12
0 12 0 7
0 13 1 16
0 14 0 11
0 15 0 17
0 16 2 3
0 17 1 17
0 18 2 12
0 19 1 22
0 20 0 12
0 21 2 19
0 22 2 13
0 23 0 22
0 24 0 15
0 25 0 23
0 26 0 22
0 27 0 25
0 28 2 22
0 29 0 29
0 30 0 29
0 31 0 34
